p cnf 184 195
c 33 select(1,3)
c 34 nots(1,3)
c 35 select(1,5)
c 36 nots(1,5)
c 37 reach(5)
c 38 reach(3)
c 39 select(3,1)
c 40 nots(3,1)
c 41 select(5,1)
c 42 nots(5,1)
c 43 select(5,3)
c 44 nots(5,3)
c 45 select(3,10)
c 46 nots(3,10)
c 47 select(3,5)
c 48 nots(3,5)
c 49 reach(10)
c 50 select(10,3)
c 51 nots(10,3)
c 52 select(10,4)
c 53 nots(10,4)
c 54 select(10,24)
c 55 nots(10,24)
c 56 select(10,17)
c 57 nots(10,17)
c 58 reach(17)
c 59 reach(24)
c 60 reach(4)
c 61 select(24,4)
c 62 nots(24,4)
c 63 select(24,10)
c 64 nots(24,10)
c 65 select(24,17)
c 66 nots(24,17)
c 67 select(17,10)
c 68 nots(17,10)
c 69 select(4,24)
c 70 nots(4,24)
c 71 select(4,10)
c 72 nots(4,10)
c 73 select(4,11)
c 74 nots(4,11)
c 75 select(17,24)
c 76 nots(17,24)
c 77 select(17,23)
c 78 nots(17,23)
c 79 reach(23)
c 80 reach(11)
c 81 select(11,4)
c 82 nots(11,4)
c 83 select(23,17)
c 84 nots(23,17)
c 85 select(23,21)
c 86 nots(23,21)
c 87 select(11,25)
c 88 nots(11,25)
c 89 select(11,21)
c 90 nots(11,21)
c 91 reach(21)
c 92 reach(25)
c 93 select(25,7)
c 94 nots(25,7)
c 95 select(25,11)
c 96 nots(25,11)
c 97 select(25,21)
c 98 nots(25,21)
c 99 select(21,11)
c 100 nots(21,11)
c 101 select(21,25)
c 102 nots(21,25)
c 103 select(21,23)
c 104 nots(21,23)
c 105 reach(7)
c 106 select(7,25)
c 107 nots(7,25)
c 121 edge(1,3)
c 122 edge(1,5)
c 123 edge(2,20)
c 124 edge(2,15)
c 125 edge(3,10)
c 126 edge(3,5)
c 127 edge(4,24)
c 128 edge(4,10)
c 129 edge(4,11)
c 130 edge(6,8)
c 131 edge(6,20)
c 132 edge(6,14)
c 133 edge(7,25)
c 134 edge(8,9)
c 135 edge(9,12)
c 136 edge(10,24)
c 137 edge(10,17)
c 138 edge(11,25)
c 139 edge(11,21)
c 140 edge(12,16)
c 141 edge(12,20)
c 142 edge(13,18)
c 143 edge(13,19)
c 144 edge(14,18)
c 145 edge(16,22)
c 146 edge(17,24)
c 147 edge(17,23)
c 148 edge(19,22)
c 149 edge(21,25)
c 150 edge(21,23)
c 151 reach(1)
c 152 goal(25)
92 0
-117 0
121 0
122 0
123 0
124 0
125 0
126 0
127 0
128 0
129 0
130 0
131 0
132 0
133 0
134 0
135 0
136 0
137 0
138 0
139 0
140 0
141 0
142 0
143 0
144 0
145 0
146 0
147 0
148 0
149 0
150 0
151 0
152 0
-1 0
-2 0
-3 0
-4 0
-5 0
-6 0
-7 0
-8 0
-9 0
-10 0
-11 0
-12 0
-13 0
-14 0
-15 0
-16 0
-17 0
-18 0
-19 0
-20 0
-21 0
-22 0
-23 0
-24 0
-25 0
-26 0
-27 0
-28 0
-29 0
-30 0
-31 0
-32 0
-108 0
-109 0
-110 0
-111 0
-112 0
-113 0
-114 0
-115 0
-116 0
-182 0
-93 0
-105 0
94 0
-106 0
-107 0
-181 0
-183 0
-95 0
-180 0
96 0
-184 0
-97 0
-179 0
98 0
-118 0
-119 0
-120 0
156 0
45 0
49 0
38 0
-46 0
-39 0
-47 0
40 0
48 0
-155 0
-50 0
-161 0
51 0
-41 0
-44 0
-63 0
-169 0
-67 0
-167 0
-71 0
-165 0
-157 0
-154 0
-72 0
-68 0
-64 0
-42 0
-153 0
-57 0
-55 0
-53 0
-36 0
-34 0
-43 0
-35 0
-33 0
-177 0
-172 0
-62 0
-66 0
-70 0
-74 0
-76 0
-78 0
-82 0
-84 0
-86 0
-88 0
-90 0
-100 0
-102 0
-104 0
-178 0
-176 0
-175 0
-174 0
-83 0
-171 0
-85 0
-65 0
-89 0
-101 0
-103 0
-54 0
-159 0
-56 0
-61 0
-170 0
-77 0
-69 0
-73 0
-164 0
-75 0
-168 0
-163 0
-160 0
-166 0
-158 0
-162 0
-173 0
-79 58 87 0
52 59 -60 81 0
60 99 -80 0
80 79 0
80 -81 0
80 59 -52 0
80 -87 0
59 -52 -91 -81 0
91 -99 0
-99 87 0
-99 58 0
59 -58 79 -52 0
-87 -81 -80 0
59 -52 -91 -58 -87 0
-87 79 -91 0
91 87 0
-59 -52 91 -79 -80 0
-79 -59 87 -52 -80 99 0
-59 -52 -80 99 58 0
60 -52 0
91 58 -79 0
-91 -81 79 0
